p cnf 12 50 
-8 -5 -3 0
-4 8 10 0
-11 12 -3 0
4 7 -6 0
11 4 -10 0
11 -10 -5 0
8 9 -6 0
-3 6 -4 0
2 8 -11 0
7 6 -3 0
5 -1 9 0
4 -11 -6 0
3 -8 -2 0
4 7 1 0
-4 -5 -3 0
-7 -4 6 0
-8 12 3 0
12 3 -11 0
-2 10 7 0
2 1 -3 0
8 5 10 0
9 -12 6 0
-9 1 4 0
9 -7 10 0
-6 11 7 0
-10 -11 -6 0
12 -11 6 0
-12 1 7 0
3 6 -2 0
2 -7 -4 0
5 -8 -9 0
-11 -7 -1 0
4 6 -5 0
8 2 -1 0
-7 -4 9 0
-6 -9 2 0
11 -10 -12 0
-3 1 9 0
-2 -9 -8 0
-1 -10 -6 0
-7 12 10 0
-5 -3 -11 0
-11 3 -7 0
2 -1 8 0
4 -1 12 0
2 -11 4 0
4 6 11 0
11 -5 8 0
-9 10 1 0
-5 2 -7 0
